NAME : gr9882
COMMENT : 9882 locations in Greece
COMMENT : Derived from National Imagery and Mapping Agency data
TYPE : TSP
DIMENSION : 9882
EDGE_WEIGHT_TYPE : EUC_2D
NODE_COORD_SECTION
1 34816.6667 24100.0000
2 34833.3333 24083.3333
3 34850.0000 24050.0000
4 34850.0000 24083.3333
5 34850.0000 24116.6667
6 34866.6667 24083.3333
7 34933.3333 24800.0000
8 34933.3333 24916.6667
9 34966.6667 24883.3333
10 34966.6667 24933.3333
EOF
